//Dat File

outFile="MPVSBPP_SET1_IT200_ITV1_NT1_TS3_WT1_VT1_REP5";
m=200;
o=34;
p=3;
numVTypes=1;

demand = [3, 5, 11, 6, 6, 10, 7, 7, 9, 11, 2, 6, 11, 3, 11, 4, 6, 7, 4, 10, 7, 10, 5, 1, 2, 9, 9, 6, 1, 3, 8, 2, 11, 2, 10, 1, 10, 8, 6, 3, 7, 2, 6, 7, 10, 4, 4, 6, 8, 10, 7, 2, 6, 5, 4, 9, 6, 10, 11, 9, 7, 3, 8, 9, 9, 7, 6, 6, 11, 5, 9, 10, 8, 11, 11, 11, 7, 6, 7, 7, 3, 2, 7, 1, 11, 5, 4, 5, 2, 5, 7, 8, 9, 4, 7, 11, 6, 10, 5, 4, 9, 7, 5, 9, 1, 10, 5, 1, 11, 11, 10, 10, 2, 8, 6, 9, 7, 2, 11, 9, 10, 2, 5, 3, 11, 8, 7, 5, 3, 7, 9, 5, 7, 1, 5, 3, 1, 2, 10, 2, 5, 7, 1, 3, 2, 6, 9, 7, 8, 8, 14, 18, 14, 13, 16, 12, 17, 18, 14, 14, 16, 13, 19, 14, 19, 12, 16, 18, 14, 16, 19, 19, 13, 14, 17, 15, 16, 19, 15, 18, 15, 16, 19, 12, 12, 15, 12, 19, 15, 16, 13, 15, 15, 17, 15, 12, 12, 15, 19, 14];
Depot_Cap = [30000, 30000, 30000];
Tarif = [10, 3, 7];
VeicVolume = [100];
VeicCost = [100];
VeicType = [1, 1, 1, 1, 1, 1, 1, 1, 1, 1, 1, 1, 1, 1, 1, 1, 1, 1, 1, 1, 1, 1, 1, 1, 1, 1, 1, 1, 1, 1, 1, 1, 1, 1];
Elect_vehicle = [[70, 100, 30], [70, 100, 30], [70, 100, 30], [70, 100, 30], [70, 100, 30], [70, 100, 30], [70, 100, 30], [70, 100, 30], [70, 100, 30], [70, 100, 30], [70, 100, 30], [70, 100, 30], [70, 100, 30], [70, 100, 30], [70, 100, 30], [70, 100, 30], [70, 100, 30], [70, 100, 30], [70, 100, 30], [70, 100, 30], [70, 100, 30], [70, 100, 30], [70, 100, 30], [70, 100, 30], [70, 100, 30], [70, 100, 30], [70, 100, 30], [70, 100, 30], [70, 100, 30], [70, 100, 30], [70, 100, 30], [70, 100, 30], [70, 100, 30], [70, 100, 30]];